Minimize

x_0_0 + x_1_0 + x_2_0 + x_3_0 + x_4_0 + x_5_0 + x_6_0 + x_7_0


Subject To

a0: x_0_0 + x_0_1 + x_0_2 = 1
a1: x_1_0 + x_1_1 + x_1_2 = 1
a2: x_2_0 + x_2_1 + x_2_2 = 1
a3: x_3_0 + x_3_1 + x_3_2 = 1
a4: x_4_0 + x_4_1 + x_4_2 = 1
a5: x_5_0 + x_5_1 + x_5_2 = 1
a6: x_6_0 + x_6_1 + x_6_2 = 1
a7: x_7_0 + x_7_1 + x_7_2 = 1
b0: 1 x_0_0 + 2 x_1_0 + 3 x_2_0 + 4 x_3_0 + 5 x_4_0 + 7 x_5_0 + 8 x_6_0 + 15 x_7_0 = 15
b1: 1 x_0_1 + 2 x_1_1 + 3 x_2_1 + 4 x_3_1 + 5 x_4_1 + 7 x_5_1 + 8 x_6_1 + 15 x_7_1 = 15
b2: 1 x_0_2 + 2 x_1_2 + 3 x_2_2 + 4 x_3_2 + 5 x_4_2 + 7 x_5_2 + 8 x_6_2 + 15 x_7_2 = 15




Binary

x_0_0 x_0_1 x_0_2 x_1_0 x_1_1 x_1_2 x_2_0 x_2_1 x_2_2 x_3_0 x_3_1 x_3_2 x_4_0 x_4_1 x_4_2 x_5_0 x_5_1 x_5_2 x_6_0 x_6_1 x_6_2 x_7_0 x_7_1 x_7_2

 
End
